Solver command line: ['C:\\Program Files\\IBM\\ILOG\\CPLEX_Studio2211\\cplex\\bin\\x64_win64\\cplex.exe']


Welcome to IBM(R) ILOG(R) CPLEX(R) Interactive Optimizer 22.1.1.0
  with Simplex, Mixed Integer & Barrier Optimizers
5725-A06 5725-A29 5724-Y48 5724-Y49 5724-Y54 5724-Y55 5655-Y21
Copyright IBM Corp. 1988, 2022.  All Rights Reserved.

Type 'help' for a list of available commands.
Type 'help' followed by a command name for more
information on commands.

CPLEX> Logfile 'cplex.log' closed.
Logfile 'C:\Users\wangy\Documents\GitHub\re_optimization\result_site_specific\tmpl6qu1btl.cplex.log' open.
CPLEX> Problem 'C:\Users\wangy\Documents\GitHub\re_optimization\result_site_specific\tmpyt_9p_eo.pyomo.lp' read.
Read time = 0.36 sec. (9.13 ticks)
CPLEX> Problem name         : C:\Users\wangy\Documents\GitHub\re_optimization\result_site_specific\tmpyt_9p_eo.pyomo.lp
Objective sense      : Minimize
Variables            :   65769  [Nneg: 35068,  Free: 8792,  Binary: 9,
                                 Other: 21900]
Objective nonzeros   :      17
Linear constraints   :   87665  [Less: 46741,  Greater: 5,  Equal: 40919]
  Nonzeros           :  225062
  RHS nonzeros       :    3562

Variables            : Min LB: 0.000000         Max UB: 1.000000       
Objective nonzeros   : Min   : 1.000000         Max   : 1.000000       
Linear constraints   :
  Nonzeros           : Min   : 0.002366809      Max   : 100000.0       
  RHS nonzeros       : Min   : 0.04100000       Max   : 100000.0       
CPLEX> Version identifier: 22.1.1.0 | 2022-11-27 | 9160aff4d
Tried aggregator 3 times.
MIP Presolve eliminated 53506 rows and 33064 columns.
Aggregator did 10441 substitutions.
Reduced MIP has 23718 rows, 22264 columns, and 71012 nonzeros.
Reduced MIP has 5 binaries, 0 generals, 0 SOSs, and 0 indicators.
Presolve time = 0.22 sec. (226.12 ticks)
Found incumbent of value 259889.971383 after 0.33 sec. (321.03 ticks)
Probing time = 0.02 sec. (1.32 ticks)
Tried aggregator 1 time.
Detecting symmetries...
Reduced MIP has 23718 rows, 22264 columns, and 71012 nonzeros.
Reduced MIP has 5 binaries, 0 generals, 0 SOSs, and 0 indicators.
Presolve time = 0.05 sec. (45.86 ticks)
Probing time = 0.02 sec. (1.22 ticks)
MIP emphasis: balance optimality and feasibility.
MIP search method: dynamic search.
Parallel mode: deterministic, using up to 16 threads.
Root relaxation solution time = 1.70 sec. (860.35 ticks)

        Nodes                                         Cuts/
   Node  Left     Objective  IInf  Best Integer    Best Bound    ItCnt     Gap

*     0+    0                       259889.9714    -7160.9366           102.76%
      0     0     5107.1436     1   259889.9714     5107.1436       68   98.03%
*     0+    0                         6711.8363     5107.1436            23.91%
*     0+    0                         5652.9514     5107.1436             9.66%
      0     0        cutoff           5652.9514                    646    0.00%
Elapsed time = 2.45 sec. (1710.85 ticks, tree = 0.01 MB, solutions = 3)

Root node processing (before b&c):
  Real time             =    2.47 sec. (1714.01 ticks)
Parallel b&c, 16 threads:
  Real time             =    0.00 sec. (0.00 ticks)
  Sync time (average)   =    0.00 sec.
  Wait time (average)   =    0.00 sec.
                          ------------
Total (root+branch&cut) =    2.47 sec. (1714.01 ticks)

Solution pool: 3 solutions saved.

MIP - Integer optimal solution:  Objective =  5.6529514427e+03
Solution time =    2.47 sec.  Iterations = 646  Nodes = 0
Deterministic time = 1714.20 ticks  (694.29 ticks/sec)

CPLEX> Incumbent solution written to file 'C:\Users\wangy\Documents\GitHub\re_optimization\result_site_specific\tmp017sd6c9.cplex.sol'.
CPLEX> 
